; Insertion sort
(declare-datatype
  list (par (a) ((nil) (cons (head a) (tail (list a))))))
(define-fun-rec
  insert
  ((x Int) (y (list Int))) (list Int)
  (match y
    ((nil (cons x (_ nil Int)))
     ((cons z xs) (ite (<= x z) (cons x y) (cons z (insert x xs)))))))
(define-fun-rec
  isort
  ((x (list Int))) (list Int)
  (match x
    ((nil (_ nil Int))
     ((cons y xs) (insert y (isort xs))))))
(define-fun-rec
  elem
  (par (a) (((x a) (y (list a))) Bool))
  (match y
    ((nil false)
     ((cons z xs) (or (= z x) (elem x xs))))))
(define-fun-rec
  deleteBy
  (par (a) (((x (=> a (=> a Bool))) (y a) (z (list a))) (list a)))
  (match z
    ((nil (_ nil a))
     ((cons y2 ys)
      (ite (@ (@ x y) y2) ys (cons y2 (deleteBy x y ys)))))))
(define-fun-rec
  isPermutation
  (par (a) (((x (list a)) (y (list a))) Bool))
  (match x
    ((nil
      (match y
        ((nil true)
         ((cons z x2) false))))
     ((cons x3 xs)
      (and (elem x3 y)
        (isPermutation xs
          (deleteBy (lambda ((x4 a)) (lambda ((x5 a)) (= x4 x5))) x3 y)))))))
(prove (forall ((xs (list Int))) (isPermutation (isort xs) xs)))
